
Value of objective function: 114.00000000

Actual values of the variables:
t1                              1
t2                              0
t3                              0
t4                              1
t5                              0
t6                              0
t7                              1
t8                              1
t9                              0
t10                             1
t11                             1
t12                             1
t13                             1
t14                             0
t15                             1
t16                             1
t17                             0
t18                             1
t19                             1
t20                             1
t21                             1
t22                             1
t23                             0
t24                             1
t25                             0
t26                             1
t27                             1
t28                             1
t29                             0
t30                             0
t31                             0
t32                             1
t33                             0
t34                             0
t35                             0
t36                             1
t37                             0
t38                             0
t39                             1
t40                             0
t41                             0
t42                             0
t43                             0
t44                             1
t45                             0
t46                             1
t47                             1
t48                             0
t49                             0
t50                             1
t51                             0
t52                             0
t53                             0
t54                             1
t55                             0
t56                             1
t57                             0
t58                             0
t59                             0
t60                             1
t61                             1
t62                             1
t63                             0
t64                             0
t65                             0
t66                             1
t67                             0
t68                             0
t69                             0
t70                             0
t71                             1
t72                             1
t73                             0
t74                             1
t75                             0
t76                             0
t77                             1
t78                             0
t79                             1
t80                             1
t81                             1
t82                             1
t83                             0
t84                             1
t85                             1
t86                             1
t87                             0
t88                             0
t89                             0
t90                             0
t91                             0
t92                             0
t93                             0
t94                             0
t95                             1
t96                             0
t97                             0
t98                             1
t99                             1
t100                            1
t101                            1
t102                            1
t103                            1
t104                            0
t105                            0
t106                            0
t107                            1
t108                            1
t109                            1
t110                            0
t111                            1
t112                            1
t113                            0
t114                            0
t115                            1
t116                            0
t117                            1
t118                            1
t119                            1
t120                            1
t121                            0
t122                            0
t123                            0
t124                            0
t125                            1
t126                            1
t127                            1
t128                            1
t129                            1
t130                            1
t131                            1
t132                            0
t133                            0
t134                            1
t135                            0
t136                            0
t137                            1
t138                            1
t139                            1
t140                            0
t141                            1
t142                            1
t143                            1
t144                            0
t145                            0
t146                            0
t147                            1
t148                            1
t149                            1
t150                            0
t151                            1
t152                            1
t153                            1
t154                            0
t155                            1
t156                            1
t157                            1
t158                            1
t159                            1
t160                            1
t161                            0
t162                            1
t163                            0
t164                            1
t165                            1
t166                            1
t167                            0
t168                            1
t169                            0
t170                            1
t171                            0
t172                            0
t173                            1
t174                            0
t175                            0
t176                            1
t177                            0
t178                            1
t179                            0
t180                            0
t181                            0
t182                            0
t183                            1
t184                            0
t185                            1
t186                            0
t187                            0
t188                            0
t189                            1
t190                            1
t191                            0
t192                            1
t193                            1
t194                            1
t195                            1
t196                            0
t197                            1
t198                            0
t199                            0
t200                            1
t201                            1
t202                            1
t203                            1
t204                            1
t205                            0
t206                            1
t207                            0
t208                            1
t209                            0
t210                            1
t211                            1
t212                            0
t213                            0
t214                            1
t215                            0
t216                            0
t217                            0
t218                            0
